NAME: random-100-6013
TYPE: TSP
COMMENT: size=100 seed=6013
DIMENSION: 202
EDGE_WEIGHT_TYPE: EUC_2D
NODE_COORD_SECTION
+0 491 107
-0 491 107
+1 749 84
-1 618 360
+2 651 77
-2 385 564
+3 984 617
-3 144 844
+4 606 715
-4 585 509
+5 969 734
-5 190 723
+6 344 433
-6 143 610
+7 461 603
-7 230 537
+8 690 76
-8 908 698
+9 539 381
-9 54 861
+10 776 260
-10 894 105
+11 6 946
-11 658 790
+12 89 913
-12 637 805
+13 641 781
-13 164 723
+14 137 689
-14 741 231
+15 353 307
-15 849 366
+16 409 499
-16 501 689
+17 358 508
-17 404 830
+18 353 551
-18 550 158
+19 93 221
-19 559 440
+20 376 31
-20 712 580
+21 381 640
-21 743 685
+22 40 600
-22 350 472
+23 395 824
-23 338 716
+24 689 561
-24 201 313
+25 703 650
-25 954 180
+26 953 915
-26 173 55
+27 11 693
-27 549 150
+28 587 943
-28 476 113
+29 726 674
-29 425 108
+30 471 44
-30 76 427
+31 968 188
-31 36 916
+32 789 383
-32 795 505
+33 825 964
-33 578 516
+34 447 367
-34 813 365
+35 114 435
-35 26 911
+36 944 591
-36 76 615
+37 503 839
-37 506 261
+38 456 100
-38 309 298
+39 390 875
-39 926 922
+40 569 570
-40 589 376
+41 104 835
-41 952 81
+42 799 793
-42 102 847
+43 281 769
-43 703 858
+44 63 703
-44 376 472
+45 658 628
-45 528 513
+46 265 787
-46 806 650
+47 11 588
-47 921 410
+48 885 890
-48 157 929
+49 706 955
-49 100 150
+50 298 201
-50 689 662
+51 650 462
-51 426 258
+52 910 778
-52 40 421
+53 410 341
-53 384 702
+54 846 445
-54 920 367
+55 786 352
-55 40 464
+56 988 527
-56 304 956
+57 475 296
-57 54 183
+58 532 900
-58 386 254
+59 426 588
-59 503 179
+60 740 247
-60 398 628
+61 354 189
-61 259 223
+62 460 521
-62 31 59
+63 954 630
-63 870 420
+64 998 979
-64 505 419
+65 933 74
-65 621 663
+66 406 4
-66 307 632
+67 492 46
-67 46 866
+68 32 482
-68 518 332
+69 287 841
-69 770 638
+70 286 360
-70 211 297
+71 403 890
-71 184 927
+72 303 326
-72 657 321
+73 9 17
-73 423 574
+74 656 234
-74 270 922
+75 347 943
-75 15 982
+76 867 513
-76 302 53
+77 632 892
-77 520 268
+78 731 343
-78 960 589
+79 221 359
-79 468 698
+80 817 425
-80 108 383
+81 349 740
-81 633 769
+82 998 914
-82 925 127
+83 540 463
-83 587 796
+84 989 390
-84 614 989
+85 7 788
-85 185 591
+86 940 134
-86 810 547
+87 804 245
-87 946 10
+88 557 953
-88 245 546
+89 878 256
-89 198 674
+90 377 743
-90 665 57
+91 346 778
-91 570 546
+92 634 61
-92 218 559
+93 13 601
-93 552 217
+94 646 715
-94 918 276
+95 235 438
-95 701 756
+96 587 828
-96 180 79
+97 640 903
-97 853 971
+98 311 202
-98 498 443
+99 693 90
-99 895 303
+100 744 503
-100 823 568
PRECEDENCE_SECTION
+0 -0
+1 -1
+2 -2
+3 -3
+4 -4
+5 -5
+6 -6
+7 -7
+8 -8
+9 -9
+10 -10
+11 -11
+12 -12
+13 -13
+14 -14
+15 -15
+16 -16
+17 -17
+18 -18
+19 -19
+20 -20
+21 -21
+22 -22
+23 -23
+24 -24
+25 -25
+26 -26
+27 -27
+28 -28
+29 -29
+30 -30
+31 -31
+32 -32
+33 -33
+34 -34
+35 -35
+36 -36
+37 -37
+38 -38
+39 -39
+40 -40
+41 -41
+42 -42
+43 -43
+44 -44
+45 -45
+46 -46
+47 -47
+48 -48
+49 -49
+50 -50
+51 -51
+52 -52
+53 -53
+54 -54
+55 -55
+56 -56
+57 -57
+58 -58
+59 -59
+60 -60
+61 -61
+62 -62
+63 -63
+64 -64
+65 -65
+66 -66
+67 -67
+68 -68
+69 -69
+70 -70
+71 -71
+72 -72
+73 -73
+74 -74
+75 -75
+76 -76
+77 -77
+78 -78
+79 -79
+80 -80
+81 -81
+82 -82
+83 -83
+84 -84
+85 -85
+86 -86
+87 -87
+88 -88
+89 -89
+90 -90
+91 -91
+92 -92
+93 -93
+94 -94
+95 -95
+96 -96
+97 -97
+98 -98
+99 -99
+100 -100
EOF
